\ENCODING=ISO-8859-1
\Problem name: ilog.cplex

Minimize
 obj1: 96728 x1 + 101850 x2 + 99988 x3 + 104080 x4 + 109187 x5 + 91878 x6
       + 93489 x7 + 102337 x8 + 100983 x9 + 107786 x10 + 97218 x11 + 93090 x12
       + 108293 x13 + 91320 x14 + 96230 x15 + 107166 x16 + 100813 x17
       + 106583 x18 + 101328 x19 + 97059 x20 + 99839 x21 + 91040 x22
       + 90874 x23 + 103766 x24 + 102385 x25 + 102138 x26 + 91400 x27
       + 102225 x28 + 102172 x29 + 96332 x30 + 102296 x31 + 105738 x32
       + 96141 x33 + 99675 x34 + 108040 x35 + 104976 x36 + 108640 x37
       + 102127 x38 + 95169 x39 + 92930 x40 + 94468 x41 + 91345 x42
       + 100607 x43 + 103621 x44 + 96703 x45 + 95947 x46 + 102964 x47
       + 109411 x48 + 95555 x49 + 93127 x50 + 109091 x51 + 99460 x52
       + 90447 x53 + 90958 x54 + 104425 x55 + 100147 x56 + 109113 x57
       + 101861 x58 + 107558 x59 + 97218 x60 + 98963 x61 + 104679 x62
       + 106228 x63 + 101145 x64 + 99919 x65 + 103929 x66 + 109977 x67
       + 101576 x68 + 105356 x69 + 108206 x70 + 90525 x71 + 93533 x72
       + 98289 x73 + 94220 x74 + 108785 x75 + 98253 x76 + 92749 x77 + 97633 x78
       + 95045 x79 + 106871 x80 + 99760 x81 + 91366 x82 + 106358 x83
       + 97146 x84 + 95763 x85 + 93146 x86 + 101901 x87 + 101093 x88
       + 107142 x89 + 93452 x90 + 105903 x91 + 94144 x92 + 109072 x93
       + 102832 x94 + 100119 x95 + 104580 x96 + 102069 x97 + 91026 x98
       + 90814 x99 + 105772 x100 + 95443 x101 + 109427 x102 + 108827 x103
       + 93131 x104 + 93265 x105 + 93090 x106 + 105531 x107 + 102735 x108
       + 105511 x109 + 108860 x110 + 102367 x111 + 99183 x112 + 94733 x113
       + 92126 x114 + 97113 x115 + 106562 x116 + 96893 x117 + 96304 x118
       + 106166 x119 + 98244 x120 + 98810 x121 + 105201 x122 + 100423 x123
       + 97181 x124 + 104484 x125 + 95025 x126 + 102365 x127 + 102288 x128
       + 97284 x129 + 104539 x130 + 91535 x131 + 107759 x132 + 92442 x133
       + 107268 x134 + 106524 x135 + 108837 x136 + 98716 x137 + 100065 x138
       + 94379 x139 + 96734 x140 + 106800 x141 + 93635 x142 + 98034 x143
       + 97561 x144 + 92375 x145 + 100192 x146 + 101200 x147 + 96583 x148
       + 107178 x149 + 99743 x150 + 102171 x151 + 90206 x152 + 94036 x153
       + 101003 x154 + 105848 x155 + 90489 x156 + 99905 x157 + 108157 x158
       + 106711 x159 + 99959 x160 + 94785 x161 + 100467 x162 + 104599 x163
       + 98110 x164 + 93711 x165 + 108153 x166 + 109808 x167 + 95209 x168
       + 104096 x169 + 105027 x170 + 94399 x171 + 93911 x172 + 101307 x173
       + 96030 x174 + 92529 x175 + 94645 x176 + 91645 x177 + 96142 x178
       + 104230 x179 + 106869 x180 + 105025 x181 + 97301 x182 + 109356 x183
       + 100315 x184 + 95381 x185 + 99851 x186 + 96933 x187 + 94022 x188
       + 97940 x189 + 103766 x190 + 103482 x191 + 90841 x192 + 96216 x193
       + 106686 x194 + 104493 x195 + 106420 x196 + 106898 x197 + 91293 x198
       + 102464 x199 + 100935 x200 + 91315 x201 + 104649 x202 + 94627 x203
       + 104553 x204 + 91060 x205 + 98963 x206 + 97510 x207 + 93563 x208
       + 101298 x209 + 102512 x210 + 97614 x211 + 108963 x212 + 96965 x213
       + 101944 x214 + 102070 x215 + 97080 x216 + 99480 x217 + 105342 x218
       + 108259 x219 + 105312 x220 + 94545 x221 + 99212 x222 + 97230 x223
       + 105122 x224 + 105232 x225 + 91922 x226 + 102155 x227 + 99139 x228
       + 108796 x229 + 91171 x230 + 90103 x231 + 99547 x232 + 100525 x233
       + 93685 x234 + 103109 x235 + 100907 x236 + 93399 x237 + 91629 x238
       + 92807 x239 + 92127 x240 + 99518 x241 + 97635 x242 + 103585 x243
       + 94592 x244 + 105691 x245 + 97706 x246 + 96463 x247 + 90803 x248
       + 107514 x249 + 102929 x250 + 93281 x251 + 104700 x252 + 100433 x253
       + 101402 x254 + 109082 x255 + 105888 x256 + 106162 x257 + 90333 x258
       + 101963 x259 + 108538 x260 + 96076 x261 + 104812 x262 + 109736 x263
       + 108966 x264 + 103621 x265 + 105291 x266 + 99824 x267 + 104744 x268
       + 105595 x269 + 100096 x270 + 96438 x271 + 92454 x272 + 104407 x273
       + 91004 x274 + 91553 x275 + 95715 x276 + 101217 x277 + 92304 x278
       + 104409 x279 + 90334 x280 + 93343 x281 + 106735 x282 + 107973 x283
       + 109188 x284 + 98381 x285 + 105326 x286 + 90233 x287 + 105905 x288
       + 102213 x289 + 92366 x290 + 103201 x291 + 93439 x292 + 108383 x293
       + 101648 x294 + 93136 x295 + 91325 x296 + 92313 x297 + 105554 x298
       + 101791 x299 + 93688 x300 + 109022 x301 + 91101 x302 + 102795 x303
       + 105312 x304 + 102284 x305 + 98494 x306 + 97858 x307 + 108542 x308
       + 90049 x309 + 106160 x310 + 100740 x311 + 92814 x312 + 100249 x313
       + 104679 x314 + 98231 x315 + 98153 x316 + 109460 x317 + 104662 x318
       + 99079 x319 + 94636 x320 + 92754 x321 + 103088 x322 + 90233 x323
       + 102785 x324 + 103787 x325 + 91553 x326 + 91335 x327 + 104005 x328
       + 106121 x329 + 96619 x330 + 106590 x331 + 100407 x332 + 100697 x333
       + 104646 x334 + 94876 x335 + 95884 x336 + 98905 x337 + 91362 x338
       + 91312 x339 + 98437 x340 + 95908 x341 + 109836 x342 + 96496 x343
       + 107526 x344 + 104654 x345 + 109633 x346 + 103241 x347 + 109627 x348
       + 97435 x349 + 104633 x350 + 94874 x351 + 100170 x352 + 108921 x353
       + 97307 x354 + 104013 x355 + 100698 x356 + 102253 x357 + 103228 x358
       + 106253 x359 + 106353 x360 + 100682 x361 + 95454 x362 + 101275 x363
       + 104656 x364 + 92280 x365 + 102647 x366 + 96901 x367 + 106992 x368
       + 100935 x369 + 106964 x370 + 103613 x371 + 92977 x372 + 109705 x373
       + 102351 x374 + 93631 x375 + 91647 x376 + 103751 x377 + 105919 x378
       + 103121 x379 + 106266 x380 + 96777 x381 + 106071 x382 + 105394 x383
       + 108196 x384 + 101555 x385 + 97763 x386 + 103902 x387 + 93547 x388
       + 92310 x389 + 103692 x390 + 105550 x391 + 104578 x392 + 93608 x393
       + 94142 x394 + 107021 x395 + 109481 x396 + 92921 x397 + 92758 x398
       + 104668 x399 + 96621 x400 + 92195 x401 + 90696 x402 + 101971 x403
       + 92223 x404 + 107496 x405 + 107418 x406 + 97631 x407 + 94172 x408
       + 95231 x409 + 92793 x410 + 92102 x411 + 108781 x412 + 108431 x413
       + 102240 x414 + 90673 x415 + 102275 x416 + 107253 x417 + 94319 x418
       + 107184 x419 + 94220 x420 + 106227 x421 + 95744 x422 + 99568 x423
       + 101332 x424 + 96028 x425 + 102065 x426 + 105361 x427 + 90941 x428
       + 94342 x429 + 94741 x430 + 103342 x431 + 99487 x432 + 99985 x433
       + 97269 x434 + 94022 x435 + 98651 x436 + 97248 x437 + 92683 x438
       + 109309 x439 + 100650 x440 + 98845 x441 + 105032 x442 + 106570 x443
       + 102182 x444 + 107549 x445 + 106459 x446 + 91725 x447 + 91086 x448
       + 90180 x449 + 102930 x450 + 107954 x451 + 106519 x452 + 108671 x453
       + 108590 x454 + 90575 x455 + 105685 x456 + 94698 x457 + 91234 x458
       + 93170 x459 + 97953 x460 + 106736 x461 + 99516 x462 + 95229 x463
       + 100699 x464 + 91367 x465 + 106297 x466 + 107377 x467 + 90253 x468
       + 104280 x469 + 101937 x470 + 96673 x471 + 106047 x472 + 90682 x473
       + 106331 x474 + 101521 x475 + 96408 x476 + 99636 x477 + 99156 x478
       + 93416 x479 + 90390 x480 + 101597 x481 + 100839 x482 + 104380 x483
       + 101129 x484 + 97197 x485 + 99011 x486 + 105639 x487 + 90193 x488
       + 98129 x489 + 107844 x490 + 92932 x491 + 101107 x492 + 94974 x493
       + 101474 x494 + 100426 x495 + 99696 x496 + 108037 x497 + 101915 x498
       + 94334 x499 + 107628 x500 + 109897 x501 + 98209 x502 + 90855 x503
       + 90076 x504 + 104027 x505 + 106001 x506 + 106197 x507 + 99289 x508
       + 94011 x509 + 94009 x510 + 97063 x511 + 108481 x512 + 104500 x513
       + 104916 x514 + 96887 x515 + 104395 x516 + 107238 x517 + 90003 x518
       + 95607 x519 + 101439 x520 + 103330 x521 + 99180 x522 + 108922 x523
       + 95479 x524 + 96366 x525 + 101055 x526 + 96759 x527 + 91156 x528
       + 100123 x529 + 91318 x530 + 100030 x531 + 93035 x532 + 99242 x533
       + 101927 x534 + 109835 x535 + 107947 x536 + 101641 x537 + 108468 x538
       + 103854 x539 + 103537 x540 + 106368 x541 + 90107 x542 + 90111 x543
       + 97225 x544 + 101825 x545 + 105048 x546 + 105618 x547 + 93002 x548
       + 97626 x549 + 99084 x550 + 94759 x551 + 105987 x552 + 92936 x553
       + 108480 x554 + 97147 x555 + 101323 x556 + 95847 x557 + 102645 x558
       + 104433 x559 + 106295 x560 + 93457 x561 + 92671 x562 + 100822 x563
       + 106128 x564 + 100785 x565 + 108518 x566 + 90745 x567 + 103371 x568
       + 97480 x569 + 99700 x570 + 92957 x571 + 104542 x572 + 104543 x573
       + 90929 x574 + 91423 x575 + 94645 x576 + 97236 x577 + 106345 x578
       + 95103 x579 + 92658 x580 + 94888 x581 + 103832 x582 + 91112 x583
       + 109249 x584 + 93484 x585 + 94338 x586 + 98721 x587 + 91752 x588
       + 92735 x589 + 100236 x590 + 105260 x591 + 100813 x592 + 95736 x593
       + 91437 x594 + 109251 x595 + 98150 x596 + 106384 x597 + 108326 x598
       + 90940 x599 + 132177 x600 + 42510 x601 + 38498 x602 + 43082 x603
       + 36509 x604 + 40862 x605 + 43048 x606 + 40931 x607 + 41019 x608
       + 41412 x609 + 42034 x610 + 38356 x611 + 40248 x612 + 39402 x613
       + 41657 x614 + 36384 x615 + 42821 x616 + 37101 x617 + 43978 x618
       + 41788 x619 + 39727 x620 + 39615 x621 + 36855 x622 + 40113 x623
       + 37767 x624 + 39510 x625 + 37052 x626 + 36766 x627 + 39063 x628
       + 37040 x629 + 38409 x630 + 42373 x631 + 36854 x632 + 43733 x633
       + 42357 x634 + 40876 x635 + 41611 x636 + 42770 x637 + 40210 x638
       + 37966 x639 + 41969 x640 + 38042 x641 + 43520 x642 + 43214 x643
       + 42263 x644 + 38966 x645 + 36443 x646 + 43879 x647 + 38442 x648
       + 36098 x649 + 36420 x650 + 41670 x651 + 36906 x652 + 43236 x653
       + 40636 x654 + 37807 x655 + 42311 x656 + 43218 x657 + 41581 x658
       + 42546 x659 + 28526 x660
Subject To
 c1:   - x1 + x9 + x11 + x12 - x15 - x23 - x27 + x35 - x41 - x47 + x48 + x54
       + x55  = 1
 c2:   - x61 + x69 + x71 + x72 - x75 - x83 - x87 + x95 - x101 - x107 + x108
       + x114 + x115  = 0
 c3:   - x121 + x129 + x131 + x132 - x135 - x143 - x147 + x155 - x161 - x167
       + x168 + x174 + x175  = 0
 c4:   - x181 + x189 + x191 + x192 - x195 - x203 - x207 + x215 - x221 - x227
       + x228 + x234 + x235  = 0
 c5:   - x241 + x249 + x251 + x252 - x255 - x263 - x267 + x275 - x281 - x287
       + x288 + x294 + x295  = -1
 c6:   - x301 + x309 + x311 + x312 - x315 - x323 - x327 + x335 - x341 - x347
       + x348 + x354 + x355  = 0
 c7:   - x361 + x369 + x371 + x372 - x375 - x383 - x387 + x395 - x401 - x407
       + x408 + x414 + x415  = 0
 c8:   - x421 + x429 + x431 + x432 - x435 - x443 - x447 + x455 - x461 - x467
       + x468 + x474 + x475  = 0
 c9:   - x481 + x489 + x491 + x492 - x495 - x503 - x507 + x515 - x521 - x527
       + x528 + x534 + x535  = -1
 c10:  - x541 + x549 + x551 + x552 - x555 - x563 - x567 + x575 - x581 - x587
       + x588 + x594 + x595  = 0
 c11:  x2 - x3 - x10 - x16 - x17 - x18 + x21 + x28 + x41 + x44 - x55 + x58  = 0
 c12:  x62 - x63 - x70 - x76 - x77 - x78 + x81 + x88 + x101 + x104 - x115
       + x118  = 0
 c13:  x122 - x123 - x130 - x136 - x137 - x138 + x141 + x148 + x161 + x164
       - x175 + x178  = 0
 c14:  x182 - x183 - x190 - x196 - x197 - x198 + x201 + x208 + x221 + x224
       - x235 + x238  = 0
 c15:  x242 - x243 - x250 - x256 - x257 - x258 + x261 + x268 + x281 + x284
       - x295 + x298  = 0
 c16:  x302 - x303 - x310 - x316 - x317 - x318 + x321 + x328 + x341 + x344
       - x355 + x358  = 0
 c17:  x362 - x363 - x370 - x376 - x377 - x378 + x381 + x388 + x401 + x404
       - x415 + x418  = 0
 c18:  x422 - x423 - x430 - x436 - x437 - x438 + x441 + x448 + x461 + x464
       - x475 + x478  = 0
 c19:  x482 - x483 - x490 - x496 - x497 - x498 + x501 + x508 + x521 + x524
       - x535 + x538  = 0
 c20:  x542 - x543 - x550 - x556 - x557 - x558 + x561 + x568 + x581 + x584
       - x595 + x598  = 0
 c21:  x1 - x5 - x6 - x9 + x17 - x24 + x26 - x28 + x29 - x30 + x52  = -1
 c22:  x61 - x65 - x66 - x69 + x77 - x84 + x86 - x88 + x89 - x90 + x112  = 0
 c23:  x121 - x125 - x126 - x129 + x137 - x144 + x146 - x148 + x149 - x150
       + x172  = 0
 c24:  x181 - x185 - x186 - x189 + x197 - x204 + x206 - x208 + x209 - x210
       + x232  = -1
 c25:  x241 - x245 - x246 - x249 + x257 - x264 + x266 - x268 + x269 - x270
       + x292  = 0
 c26:  x301 - x305 - x306 - x309 + x317 - x324 + x326 - x328 + x329 - x330
       + x352  = 0
 c27:  x361 - x365 - x366 - x369 + x377 - x384 + x386 - x388 + x389 - x390
       + x412  = 0
 c28:  x421 - x425 - x426 - x429 + x437 - x444 + x446 - x448 + x449 - x450
       + x472  = 0
 c29:  x481 - x485 - x486 - x489 + x497 - x504 + x506 - x508 + x509 - x510
       + x532  = 1
 c30:  x541 - x545 - x546 - x549 + x557 - x564 + x566 - x568 + x569 - x570
       + x592  = 0
 c31:  - x7 - x12 + x13 - x31 - x36 + x40 - x44 + x56 + x59 + x60  = 0
 c32:  - x67 - x72 + x73 - x91 - x96 + x100 - x104 + x116 + x119 + x120  = -1
 c33:  - x127 - x132 + x133 - x151 - x156 + x160 - x164 + x176 + x179 + x180
        = 0
 c34:  - x187 - x192 + x193 - x211 - x216 + x220 - x224 + x236 + x239 + x240
        = 1
 c35:  - x247 - x252 + x253 - x271 - x276 + x280 - x284 + x296 + x299 + x300
        = 0
 c36:  - x307 - x312 + x313 - x331 - x336 + x340 - x344 + x356 + x359 + x360
        = 0
 c37:  - x367 - x372 + x373 - x391 - x396 + x400 - x404 + x416 + x419 + x420
        = 0
 c38:  - x427 - x432 + x433 - x451 - x456 + x460 - x464 + x476 + x479 + x480
        = 0
 c39:  - x487 - x492 + x493 - x511 - x516 + x520 - x524 + x536 + x539 + x540
        = 0
 c40:  - x547 - x552 + x553 - x571 - x576 + x580 - x584 + x596 + x599 + x600
        = 0
 c41:  - x2 + x10 + x24 - x26 + x27 + x38 - x39 + x42 - x46 - x48 - x49 + x53
       - x59  = 0
 c42:  - x62 + x70 + x84 - x86 + x87 + x98 - x99 + x102 - x106 - x108 - x109
       + x113 - x119  = 0
 c43:  - x122 + x130 + x144 - x146 + x147 + x158 - x159 + x162 - x166 - x168
       - x169 + x173 - x179  = 0
 c44:  - x182 + x190 + x204 - x206 + x207 + x218 - x219 + x222 - x226 - x228
       - x229 + x233 - x239  = 0
 c45:  - x242 + x250 + x264 - x266 + x267 + x278 - x279 + x282 - x286 - x288
       - x289 + x293 - x299  = 0
 c46:  - x302 + x310 + x324 - x326 + x327 + x338 - x339 + x342 - x346 - x348
       - x349 + x353 - x359  = 0
 c47:  - x362 + x370 + x384 - x386 + x387 + x398 - x399 + x402 - x406 - x408
       - x409 + x413 - x419  = -1
 c48:  - x422 + x430 + x444 - x446 + x447 + x458 - x459 + x462 - x466 - x468
       - x469 + x473 - x479  = 1
 c49:  - x482 + x490 + x504 - x506 + x507 + x518 - x519 + x522 - x526 - x528
       - x529 + x533 - x539  = 0
 c50:  - x542 + x550 + x564 - x566 + x567 + x578 - x579 + x582 - x586 - x588
       - x589 + x593 - x599  = 0
 c51:  x5 - x11 - x14 + x20 + x23 - x29 - x32 - x33 - x34 + x36 + x49 + x50
       - x60  = 0
 c52:  x65 - x71 - x74 + x80 + x83 - x89 - x92 - x93 - x94 + x96 + x109 + x110
       - x120  = 1
 c53:  x125 - x131 - x134 + x140 + x143 - x149 - x152 - x153 - x154 + x156
       + x169 + x170 - x180  = 0
 c54:  x185 - x191 - x194 + x200 + x203 - x209 - x212 - x213 - x214 + x216
       + x229 + x230 - x240  = 0
 c55:  x245 - x251 - x254 + x260 + x263 - x269 - x272 - x273 - x274 + x276
       + x289 + x290 - x300  = 0
 c56:  x305 - x311 - x314 + x320 + x323 - x329 - x332 - x333 - x334 + x336
       + x349 + x350 - x360  = -1
 c57:  x365 - x371 - x374 + x380 + x383 - x389 - x392 - x393 - x394 + x396
       + x409 + x410 - x420  = 1
 c58:  x425 - x431 - x434 + x440 + x443 - x449 - x452 - x453 - x454 + x456
       + x469 + x470 - x480  = 0
 c59:  x485 - x491 - x494 + x500 + x503 - x509 - x512 - x513 - x514 + x516
       + x529 + x530 - x540  = 0
 c60:  x545 - x551 - x554 + x560 + x563 - x569 - x572 - x573 - x574 + x576
       + x589 + x590 - x600  = -1
 c61:  x4 + x7 + x14 - x25 - x37 - x38 + x43 + x51 - x58  = 0
 c62:  x64 + x67 + x74 - x85 - x97 - x98 + x103 + x111 - x118  = 0
 c63:  x124 + x127 + x134 - x145 - x157 - x158 + x163 + x171 - x178  = 0
 c64:  x184 + x187 + x194 - x205 - x217 - x218 + x223 + x231 - x238  = 0
 c65:  x244 + x247 + x254 - x265 - x277 - x278 + x283 + x291 - x298  = 1
 c66:  x304 + x307 + x314 - x325 - x337 - x338 + x343 + x351 - x358  = 0
 c67:  x364 + x367 + x374 - x385 - x397 - x398 + x403 + x411 - x418  = 0
 c68:  x424 + x427 + x434 - x445 - x457 - x458 + x463 + x471 - x478  = 0
 c69:  x484 + x487 + x494 - x505 - x517 - x518 + x523 + x531 - x538  = 0
 c70:  x544 + x547 + x554 - x565 - x577 - x578 + x583 + x591 - x598  = 0
 c71:  x3 - x4 + x8 - x22 + x33 - x35 + x37 - x40 - x42 + x45 + x47 - x50 - x52
       - x57  = 0
 c72:  x63 - x64 + x68 - x82 + x93 - x95 + x97 - x100 - x102 + x105 + x107
       - x110 - x112 - x117  = 0
 c73:  x123 - x124 + x128 - x142 + x153 - x155 + x157 - x160 - x162 + x165
       + x167 - x170 - x172 - x177  = 0
 c74:  x183 - x184 + x188 - x202 + x213 - x215 + x217 - x220 - x222 + x225
       + x227 - x230 - x232 - x237  = 0
 c75:  x243 - x244 + x248 - x262 + x273 - x275 + x277 - x280 - x282 + x285
       + x287 - x290 - x292 - x297  = 0
 c76:  x303 - x304 + x308 - x322 + x333 - x335 + x337 - x340 - x342 + x345
       + x347 - x350 - x352 - x357  = 1
 c77:  x363 - x364 + x368 - x382 + x393 - x395 + x397 - x400 - x402 + x405
       + x407 - x410 - x412 - x417  = 0
 c78:  x423 - x424 + x428 - x442 + x453 - x455 + x457 - x460 - x462 + x465
       + x467 - x470 - x472 - x477  = -1
 c79:  x483 - x484 + x488 - x502 + x513 - x515 + x517 - x520 - x522 + x525
       + x527 - x530 - x532 - x537  = 0
 c80:  x543 - x544 + x548 - x562 + x573 - x575 + x577 - x580 - x582 + x585
       + x587 - x590 - x592 - x597  = 0
 c81:  x6 - x8 - x13 + x18 + x19 - x20 + x31 + x34 + x39 - x51 - x53 - x54
       + x57  = 0
 c82:  x66 - x68 - x73 + x78 + x79 - x80 + x91 + x94 + x99 - x111 - x113 - x114
       + x117  = 0
 c83:  x126 - x128 - x133 + x138 + x139 - x140 + x151 + x154 + x159 - x171
       - x173 - x174 + x177  = 1
 c84:  x186 - x188 - x193 + x198 + x199 - x200 + x211 + x214 + x219 - x231
       - x233 - x234 + x237  = 0
 c85:  x246 - x248 - x253 + x258 + x259 - x260 + x271 + x274 + x279 - x291
       - x293 - x294 + x297  = 0
 c86:  x306 - x308 - x313 + x318 + x319 - x320 + x331 + x334 + x339 - x351
       - x353 - x354 + x357  = 0
 c87:  x366 - x368 - x373 + x378 + x379 - x380 + x391 + x394 + x399 - x411
       - x413 - x414 + x417  = 0
 c88:  x426 - x428 - x433 + x438 + x439 - x440 + x451 + x454 + x459 - x471
       - x473 - x474 + x477  = 0
 c89:  x486 - x488 - x493 + x498 + x499 - x500 + x511 + x514 + x519 - x531
       - x533 - x534 + x537  = 0
 c90:  x546 - x548 - x553 + x558 + x559 - x560 + x571 + x574 + x579 - x591
       - x593 - x594 + x597  = 0
 c91:  x15 + x16 - x19 - x21 + x22 + x25 + x30 + x32 - x43 - x45 + x46 - x56
        = 0
 c92:  x75 + x76 - x79 - x81 + x82 + x85 + x90 + x92 - x103 - x105 + x106
       - x116  = 0
 c93:  x135 + x136 - x139 - x141 + x142 + x145 + x150 + x152 - x163 - x165
       + x166 - x176  = -1
 c94:  x195 + x196 - x199 - x201 + x202 + x205 + x210 + x212 - x223 - x225
       + x226 - x236  = 0
 c95:  x255 + x256 - x259 - x261 + x262 + x265 + x270 + x272 - x283 - x285
       + x286 - x296  = 0
 c96:  x315 + x316 - x319 - x321 + x322 + x325 + x330 + x332 - x343 - x345
       + x346 - x356  = 0
 c97:  x375 + x376 - x379 - x381 + x382 + x385 + x390 + x392 - x403 - x405
       + x406 - x416  = 0
 c98:  x435 + x436 - x439 - x441 + x442 + x445 + x450 + x452 - x463 - x465
       + x466 - x476  = 0
 c99:  x495 + x496 - x499 - x501 + x502 + x505 + x510 + x512 - x523 - x525
       + x526 - x536  = 0
 c100: x555 + x556 - x559 - x561 + x562 + x565 + x570 + x572 - x583 - x585
       + x586 - x596  = 1
 c101: 4 x1 + 4 x61 + 4 x121 + 4 x181 + 4 x241 + 4 x301 + 4 x361 + 4 x421
       + 4 x481 + 4 x541 - 18 x601 <= 0
 c102: 4 x2 + 4 x62 + 4 x122 + 4 x182 + 4 x242 + 4 x302 + 4 x362 + 4 x422
       + 4 x482 + 4 x542 - 21 x602 <= 0
 c103: 4 x3 + 4 x63 + 4 x123 + 4 x183 + 4 x243 + 4 x303 + 4 x363 + 4 x423
       + 4 x483 + 4 x543 - 20 x603 <= 0
 c104: 4 x4 + 4 x64 + 4 x124 + 4 x184 + 4 x244 + 4 x304 + 4 x364 + 4 x424
       + 4 x484 + 4 x544 - 21 x604 <= 0
 c105: 4 x5 + 4 x65 + 4 x125 + 4 x185 + 4 x245 + 4 x305 + 4 x365 + 4 x425
       + 4 x485 + 4 x545 - 20 x605 <= 0
 c106: 4 x6 + 4 x66 + 4 x126 + 4 x186 + 4 x246 + 4 x306 + 4 x366 + 4 x426
       + 4 x486 + 4 x546 - 20 x606 <= 0
 c107: 4 x7 + 4 x67 + 4 x127 + 4 x187 + 4 x247 + 4 x307 + 4 x367 + 4 x427
       + 4 x487 + 4 x547 - 20 x607 <= 0
 c108: 4 x8 + 4 x68 + 4 x128 + 4 x188 + 4 x248 + 4 x308 + 4 x368 + 4 x428
       + 4 x488 + 4 x548 - 20 x608 <= 0
 c109: 4 x9 + 4 x69 + 4 x129 + 4 x189 + 4 x249 + 4 x309 + 4 x369 + 4 x429
       + 4 x489 + 4 x549 - 21 x609 <= 0
 c110: 4 x10 + 4 x70 + 4 x130 + 4 x190 + 4 x250 + 4 x310 + 4 x370 + 4 x430
       + 4 x490 + 4 x550 - 19 x610 <= 0
 c111: 4 x11 + 4 x71 + 4 x131 + 4 x191 + 4 x251 + 4 x311 + 4 x371 + 4 x431
       + 4 x491 + 4 x551 - 18 x611 <= 0
 c112: 4 x12 + 4 x72 + 4 x132 + 4 x192 + 4 x252 + 4 x312 + 4 x372 + 4 x432
       + 4 x492 + 4 x552 - 19 x612 <= 0
 c113: 4 x13 + 4 x73 + 4 x133 + 4 x193 + 4 x253 + 4 x313 + 4 x373 + 4 x433
       + 4 x493 + 4 x553 - 22 x613 <= 0
 c114: 4 x14 + 4 x74 + 4 x134 + 4 x194 + 4 x254 + 4 x314 + 4 x374 + 4 x434
       + 4 x494 + 4 x554 - 21 x614 <= 0
 c115: 4 x15 + 4 x75 + 4 x135 + 4 x195 + 4 x255 + 4 x315 + 4 x375 + 4 x435
       + 4 x495 + 4 x555 - 19 x615 <= 0
 c116: 4 x16 + 4 x76 + 4 x136 + 4 x196 + 4 x256 + 4 x316 + 4 x376 + 4 x436
       + 4 x496 + 4 x556 - 19 x616 <= 0
 c117: 4 x17 + 4 x77 + 4 x137 + 4 x197 + 4 x257 + 4 x317 + 4 x377 + 4 x437
       + 4 x497 + 4 x557 - 18 x617 <= 0
 c118: 4 x18 + 4 x78 + 4 x138 + 4 x198 + 4 x258 + 4 x318 + 4 x378 + 4 x438
       + 4 x498 + 4 x558 - 21 x618 <= 0
 c119: 4 x19 + 4 x79 + 4 x139 + 4 x199 + 4 x259 + 4 x319 + 4 x379 + 4 x439
       + 4 x499 + 4 x559 - 19 x619 <= 0
 c120: 4 x20 + 4 x80 + 4 x140 + 4 x200 + 4 x260 + 4 x320 + 4 x380 + 4 x440
       + 4 x500 + 4 x560 - 20 x620 <= 0
 c121: 4 x21 + 4 x81 + 4 x141 + 4 x201 + 4 x261 + 4 x321 + 4 x381 + 4 x441
       + 4 x501 + 4 x561 - 22 x621 <= 0
 c122: 4 x22 + 4 x82 + 4 x142 + 4 x202 + 4 x262 + 4 x322 + 4 x382 + 4 x442
       + 4 x502 + 4 x562 - 20 x622 <= 0
 c123: 4 x23 + 4 x83 + 4 x143 + 4 x203 + 4 x263 + 4 x323 + 4 x383 + 4 x443
       + 4 x503 + 4 x563 - 20 x623 <= 0
 c124: 4 x24 + 4 x84 + 4 x144 + 4 x204 + 4 x264 + 4 x324 + 4 x384 + 4 x444
       + 4 x504 + 4 x564 - 22 x624 <= 0
 c125: 4 x25 + 4 x85 + 4 x145 + 4 x205 + 4 x265 + 4 x325 + 4 x385 + 4 x445
       + 4 x505 + 4 x565 - 21 x625 <= 0
 c126: 4 x26 + 4 x86 + 4 x146 + 4 x206 + 4 x266 + 4 x326 + 4 x386 + 4 x446
       + 4 x506 + 4 x566 - 22 x626 <= 0
 c127: 4 x27 + 4 x87 + 4 x147 + 4 x207 + 4 x267 + 4 x327 + 4 x387 + 4 x447
       + 4 x507 + 4 x567 - 21 x627 <= 0
 c128: 4 x28 + 4 x88 + 4 x148 + 4 x208 + 4 x268 + 4 x328 + 4 x388 + 4 x448
       + 4 x508 + 4 x568 - 19 x628 <= 0
 c129: 4 x29 + 4 x89 + 4 x149 + 4 x209 + 4 x269 + 4 x329 + 4 x389 + 4 x449
       + 4 x509 + 4 x569 - 19 x629 <= 0
 c130: 4 x30 + 4 x90 + 4 x150 + 4 x210 + 4 x270 + 4 x330 + 4 x390 + 4 x450
       + 4 x510 + 4 x570 - 20 x630 <= 0
 c131: 4 x31 + 4 x91 + 4 x151 + 4 x211 + 4 x271 + 4 x331 + 4 x391 + 4 x451
       + 4 x511 + 4 x571 - 20 x631 <= 0
 c132: 4 x32 + 4 x92 + 4 x152 + 4 x212 + 4 x272 + 4 x332 + 4 x392 + 4 x452
       + 4 x512 + 4 x572 - 21 x632 <= 0
 c133: 4 x33 + 4 x93 + 4 x153 + 4 x213 + 4 x273 + 4 x333 + 4 x393 + 4 x453
       + 4 x513 + 4 x573 - 19 x633 <= 0
 c134: 4 x34 + 4 x94 + 4 x154 + 4 x214 + 4 x274 + 4 x334 + 4 x394 + 4 x454
       + 4 x514 + 4 x574 - 20 x634 <= 0
 c135: 4 x35 + 4 x95 + 4 x155 + 4 x215 + 4 x275 + 4 x335 + 4 x395 + 4 x455
       + 4 x515 + 4 x575 - 20 x635 <= 0
 c136: 4 x36 + 4 x96 + 4 x156 + 4 x216 + 4 x276 + 4 x336 + 4 x396 + 4 x456
       + 4 x516 + 4 x576 - 18 x636 <= 0
 c137: 4 x37 + 4 x97 + 4 x157 + 4 x217 + 4 x277 + 4 x337 + 4 x397 + 4 x457
       + 4 x517 + 4 x577 - 20 x637 <= 0
 c138: 4 x38 + 4 x98 + 4 x158 + 4 x218 + 4 x278 + 4 x338 + 4 x398 + 4 x458
       + 4 x518 + 4 x578 - 21 x638 <= 0
 c139: 4 x39 + 4 x99 + 4 x159 + 4 x219 + 4 x279 + 4 x339 + 4 x399 + 4 x459
       + 4 x519 + 4 x579 - 22 x639 <= 0
 c140: 4 x40 + 4 x100 + 4 x160 + 4 x220 + 4 x280 + 4 x340 + 4 x400 + 4 x460
       + 4 x520 + 4 x580 - 21 x640 <= 0
 c141: 4 x41 + 4 x101 + 4 x161 + 4 x221 + 4 x281 + 4 x341 + 4 x401 + 4 x461
       + 4 x521 + 4 x581 - 19 x641 <= 0
 c142: 4 x42 + 4 x102 + 4 x162 + 4 x222 + 4 x282 + 4 x342 + 4 x402 + 4 x462
       + 4 x522 + 4 x582 - 18 x642 <= 0
 c143: 4 x43 + 4 x103 + 4 x163 + 4 x223 + 4 x283 + 4 x343 + 4 x403 + 4 x463
       + 4 x523 + 4 x583 - 21 x643 <= 0
 c144: 4 x44 + 4 x104 + 4 x164 + 4 x224 + 4 x284 + 4 x344 + 4 x404 + 4 x464
       + 4 x524 + 4 x584 - 19 x644 <= 0
 c145: 4 x45 + 4 x105 + 4 x165 + 4 x225 + 4 x285 + 4 x345 + 4 x405 + 4 x465
       + 4 x525 + 4 x585 - 21 x645 <= 0
 c146: 4 x46 + 4 x106 + 4 x166 + 4 x226 + 4 x286 + 4 x346 + 4 x406 + 4 x466
       + 4 x526 + 4 x586 - 19 x646 <= 0
 c147: 4 x47 + 4 x107 + 4 x167 + 4 x227 + 4 x287 + 4 x347 + 4 x407 + 4 x467
       + 4 x527 + 4 x587 - 19 x647 <= 0
 c148: 4 x48 + 4 x108 + 4 x168 + 4 x228 + 4 x288 + 4 x348 + 4 x408 + 4 x468
       + 4 x528 + 4 x588 - 18 x648 <= 0
 c149: 4 x49 + 4 x109 + 4 x169 + 4 x229 + 4 x289 + 4 x349 + 4 x409 + 4 x469
       + 4 x529 + 4 x589 - 21 x649 <= 0
 c150: 4 x50 + 4 x110 + 4 x170 + 4 x230 + 4 x290 + 4 x350 + 4 x410 + 4 x470
       + 4 x530 + 4 x590 - 19 x650 <= 0
 c151: 4 x51 + 4 x111 + 4 x171 + 4 x231 + 4 x291 + 4 x351 + 4 x411 + 4 x471
       + 4 x531 + 4 x591 - 18 x651 <= 0
 c152: 4 x52 + 4 x112 + 4 x172 + 4 x232 + 4 x292 + 4 x352 + 4 x412 + 4 x472
       + 4 x532 + 4 x592 - 21 x652 <= 0
 c153: 4 x53 + 4 x113 + 4 x173 + 4 x233 + 4 x293 + 4 x353 + 4 x413 + 4 x473
       + 4 x533 + 4 x593 - 19 x653 <= 0
 c154: 4 x54 + 4 x114 + 4 x174 + 4 x234 + 4 x294 + 4 x354 + 4 x414 + 4 x474
       + 4 x534 + 4 x594 - 21 x654 <= 0
 c155: 4 x55 + 4 x115 + 4 x175 + 4 x235 + 4 x295 + 4 x355 + 4 x415 + 4 x475
       + 4 x535 + 4 x595 - 22 x655 <= 0
 c156: 4 x56 + 4 x116 + 4 x176 + 4 x236 + 4 x296 + 4 x356 + 4 x416 + 4 x476
       + 4 x536 + 4 x596 - 19 x656 <= 0
 c157: 4 x57 + 4 x117 + 4 x177 + 4 x237 + 4 x297 + 4 x357 + 4 x417 + 4 x477
       + 4 x537 + 4 x597 - 18 x657 <= 0
 c158: 4 x58 + 4 x118 + 4 x178 + 4 x238 + 4 x298 + 4 x358 + 4 x418 + 4 x478
       + 4 x538 + 4 x598 - 22 x658 <= 0
 c159: 4 x59 + 4 x119 + 4 x179 + 4 x239 + 4 x299 + 4 x359 + 4 x419 + 4 x479
       + 4 x539 + 4 x599 - 18 x659 <= 0
 c160: 4 x60 + 4 x120 + 4 x180 + 4 x240 + 4 x300 + 4 x360 + 4 x420 + 4 x480
       + 4 x540 + 4 x600 - 24 x660 <= 0
Bounds
 0 <= x1 <= 1
 0 <= x2 <= 1
 0 <= x3 <= 1
 0 <= x4 <= 1
 0 <= x5 <= 1
 0 <= x6 <= 1
 0 <= x7 <= 1
 0 <= x8 <= 1
 0 <= x9 <= 1
 0 <= x10 <= 1
 0 <= x11 <= 1
 0 <= x12 <= 1
 0 <= x13 <= 1
 0 <= x14 <= 1
 0 <= x15 <= 1
 0 <= x16 <= 1
 0 <= x17 <= 1
 0 <= x18 <= 1
 0 <= x19 <= 1
 0 <= x20 <= 1
 0 <= x21 <= 1
 0 <= x22 <= 1
 0 <= x23 <= 1
 0 <= x24 <= 1
 0 <= x25 <= 1
 0 <= x26 <= 1
 0 <= x27 <= 1
 0 <= x28 <= 1
 0 <= x29 <= 1
 0 <= x30 <= 1
 0 <= x31 <= 1
 0 <= x32 <= 1
 0 <= x33 <= 1
 0 <= x34 <= 1
 0 <= x35 <= 1
 0 <= x36 <= 1
 0 <= x37 <= 1
 0 <= x38 <= 1
 0 <= x39 <= 1
 0 <= x40 <= 1
 0 <= x41 <= 1
 0 <= x42 <= 1
 0 <= x43 <= 1
 0 <= x44 <= 1
 0 <= x45 <= 1
 0 <= x46 <= 1
 0 <= x47 <= 1
 0 <= x48 <= 1
 0 <= x49 <= 1
 0 <= x50 <= 1
 0 <= x51 <= 1
 0 <= x52 <= 1
 0 <= x53 <= 1
 0 <= x54 <= 1
 0 <= x55 <= 1
 0 <= x56 <= 1
 0 <= x57 <= 1
 0 <= x58 <= 1
 0 <= x59 <= 1
 0 <= x60 <= 1
 0 <= x61 <= 1
 0 <= x62 <= 1
 0 <= x63 <= 1
 0 <= x64 <= 1
 0 <= x65 <= 1
 0 <= x66 <= 1
 0 <= x67 <= 1
 0 <= x68 <= 1
 0 <= x69 <= 1
 0 <= x70 <= 1
 0 <= x71 <= 1
 0 <= x72 <= 1
 0 <= x73 <= 1
 0 <= x74 <= 1
 0 <= x75 <= 1
 0 <= x76 <= 1
 0 <= x77 <= 1
 0 <= x78 <= 1
 0 <= x79 <= 1
 0 <= x80 <= 1
 0 <= x81 <= 1
 0 <= x82 <= 1
 0 <= x83 <= 1
 0 <= x84 <= 1
 0 <= x85 <= 1
 0 <= x86 <= 1
 0 <= x87 <= 1
 0 <= x88 <= 1
 0 <= x89 <= 1
 0 <= x90 <= 1
 0 <= x91 <= 1
 0 <= x92 <= 1
 0 <= x93 <= 1
 0 <= x94 <= 1
 0 <= x95 <= 1
 0 <= x96 <= 1
 0 <= x97 <= 1
 0 <= x98 <= 1
 0 <= x99 <= 1
 0 <= x100 <= 1
 0 <= x101 <= 1
 0 <= x102 <= 1
 0 <= x103 <= 1
 0 <= x104 <= 1
 0 <= x105 <= 1
 0 <= x106 <= 1
 0 <= x107 <= 1
 0 <= x108 <= 1
 0 <= x109 <= 1
 0 <= x110 <= 1
 0 <= x111 <= 1
 0 <= x112 <= 1
 0 <= x113 <= 1
 0 <= x114 <= 1
 0 <= x115 <= 1
 0 <= x116 <= 1
 0 <= x117 <= 1
 0 <= x118 <= 1
 0 <= x119 <= 1
 0 <= x120 <= 1
 0 <= x121 <= 1
 0 <= x122 <= 1
 0 <= x123 <= 1
 0 <= x124 <= 1
 0 <= x125 <= 1
 0 <= x126 <= 1
 0 <= x127 <= 1
 0 <= x128 <= 1
 0 <= x129 <= 1
 0 <= x130 <= 1
 0 <= x131 <= 1
 0 <= x132 <= 1
 0 <= x133 <= 1
 0 <= x134 <= 1
 0 <= x135 <= 1
 0 <= x136 <= 1
 0 <= x137 <= 1
 0 <= x138 <= 1
 0 <= x139 <= 1
 0 <= x140 <= 1
 0 <= x141 <= 1
 0 <= x142 <= 1
 0 <= x143 <= 1
 0 <= x144 <= 1
 0 <= x145 <= 1
 0 <= x146 <= 1
 0 <= x147 <= 1
 0 <= x148 <= 1
 0 <= x149 <= 1
 0 <= x150 <= 1
 0 <= x151 <= 1
 0 <= x152 <= 1
 0 <= x153 <= 1
 0 <= x154 <= 1
 0 <= x155 <= 1
 0 <= x156 <= 1
 0 <= x157 <= 1
 0 <= x158 <= 1
 0 <= x159 <= 1
 0 <= x160 <= 1
 0 <= x161 <= 1
 0 <= x162 <= 1
 0 <= x163 <= 1
 0 <= x164 <= 1
 0 <= x165 <= 1
 0 <= x166 <= 1
 0 <= x167 <= 1
 0 <= x168 <= 1
 0 <= x169 <= 1
 0 <= x170 <= 1
 0 <= x171 <= 1
 0 <= x172 <= 1
 0 <= x173 <= 1
 0 <= x174 <= 1
 0 <= x175 <= 1
 0 <= x176 <= 1
 0 <= x177 <= 1
 0 <= x178 <= 1
 0 <= x179 <= 1
 0 <= x180 <= 1
 0 <= x181 <= 1
 0 <= x182 <= 1
 0 <= x183 <= 1
 0 <= x184 <= 1
 0 <= x185 <= 1
 0 <= x186 <= 1
 0 <= x187 <= 1
 0 <= x188 <= 1
 0 <= x189 <= 1
 0 <= x190 <= 1
 0 <= x191 <= 1
 0 <= x192 <= 1
 0 <= x193 <= 1
 0 <= x194 <= 1
 0 <= x195 <= 1
 0 <= x196 <= 1
 0 <= x197 <= 1
 0 <= x198 <= 1
 0 <= x199 <= 1
 0 <= x200 <= 1
 0 <= x201 <= 1
 0 <= x202 <= 1
 0 <= x203 <= 1
 0 <= x204 <= 1
 0 <= x205 <= 1
 0 <= x206 <= 1
 0 <= x207 <= 1
 0 <= x208 <= 1
 0 <= x209 <= 1
 0 <= x210 <= 1
 0 <= x211 <= 1
 0 <= x212 <= 1
 0 <= x213 <= 1
 0 <= x214 <= 1
 0 <= x215 <= 1
 0 <= x216 <= 1
 0 <= x217 <= 1
 0 <= x218 <= 1
 0 <= x219 <= 1
 0 <= x220 <= 1
 0 <= x221 <= 1
 0 <= x222 <= 1
 0 <= x223 <= 1
 0 <= x224 <= 1
 0 <= x225 <= 1
 0 <= x226 <= 1
 0 <= x227 <= 1
 0 <= x228 <= 1
 0 <= x229 <= 1
 0 <= x230 <= 1
 0 <= x231 <= 1
 0 <= x232 <= 1
 0 <= x233 <= 1
 0 <= x234 <= 1
 0 <= x235 <= 1
 0 <= x236 <= 1
 0 <= x237 <= 1
 0 <= x238 <= 1
 0 <= x239 <= 1
 0 <= x240 <= 1
 0 <= x241 <= 1
 0 <= x242 <= 1
 0 <= x243 <= 1
 0 <= x244 <= 1
 0 <= x245 <= 1
 0 <= x246 <= 1
 0 <= x247 <= 1
 0 <= x248 <= 1
 0 <= x249 <= 1
 0 <= x250 <= 1
 0 <= x251 <= 1
 0 <= x252 <= 1
 0 <= x253 <= 1
 0 <= x254 <= 1
 0 <= x255 <= 1
 0 <= x256 <= 1
 0 <= x257 <= 1
 0 <= x258 <= 1
 0 <= x259 <= 1
 0 <= x260 <= 1
 0 <= x261 <= 1
 0 <= x262 <= 1
 0 <= x263 <= 1
 0 <= x264 <= 1
 0 <= x265 <= 1
 0 <= x266 <= 1
 0 <= x267 <= 1
 0 <= x268 <= 1
 0 <= x269 <= 1
 0 <= x270 <= 1
 0 <= x271 <= 1
 0 <= x272 <= 1
 0 <= x273 <= 1
 0 <= x274 <= 1
 0 <= x275 <= 1
 0 <= x276 <= 1
 0 <= x277 <= 1
 0 <= x278 <= 1
 0 <= x279 <= 1
 0 <= x280 <= 1
 0 <= x281 <= 1
 0 <= x282 <= 1
 0 <= x283 <= 1
 0 <= x284 <= 1
 0 <= x285 <= 1
 0 <= x286 <= 1
 0 <= x287 <= 1
 0 <= x288 <= 1
 0 <= x289 <= 1
 0 <= x290 <= 1
 0 <= x291 <= 1
 0 <= x292 <= 1
 0 <= x293 <= 1
 0 <= x294 <= 1
 0 <= x295 <= 1
 0 <= x296 <= 1
 0 <= x297 <= 1
 0 <= x298 <= 1
 0 <= x299 <= 1
 0 <= x300 <= 1
 0 <= x301 <= 1
 0 <= x302 <= 1
 0 <= x303 <= 1
 0 <= x304 <= 1
 0 <= x305 <= 1
 0 <= x306 <= 1
 0 <= x307 <= 1
 0 <= x308 <= 1
 0 <= x309 <= 1
 0 <= x310 <= 1
 0 <= x311 <= 1
 0 <= x312 <= 1
 0 <= x313 <= 1
 0 <= x314 <= 1
 0 <= x315 <= 1
 0 <= x316 <= 1
 0 <= x317 <= 1
 0 <= x318 <= 1
 0 <= x319 <= 1
 0 <= x320 <= 1
 0 <= x321 <= 1
 0 <= x322 <= 1
 0 <= x323 <= 1
 0 <= x324 <= 1
 0 <= x325 <= 1
 0 <= x326 <= 1
 0 <= x327 <= 1
 0 <= x328 <= 1
 0 <= x329 <= 1
 0 <= x330 <= 1
 0 <= x331 <= 1
 0 <= x332 <= 1
 0 <= x333 <= 1
 0 <= x334 <= 1
 0 <= x335 <= 1
 0 <= x336 <= 1
 0 <= x337 <= 1
 0 <= x338 <= 1
 0 <= x339 <= 1
 0 <= x340 <= 1
 0 <= x341 <= 1
 0 <= x342 <= 1
 0 <= x343 <= 1
 0 <= x344 <= 1
 0 <= x345 <= 1
 0 <= x346 <= 1
 0 <= x347 <= 1
 0 <= x348 <= 1
 0 <= x349 <= 1
 0 <= x350 <= 1
 0 <= x351 <= 1
 0 <= x352 <= 1
 0 <= x353 <= 1
 0 <= x354 <= 1
 0 <= x355 <= 1
 0 <= x356 <= 1
 0 <= x357 <= 1
 0 <= x358 <= 1
 0 <= x359 <= 1
 0 <= x360 <= 1
 0 <= x361 <= 1
 0 <= x362 <= 1
 0 <= x363 <= 1
 0 <= x364 <= 1
 0 <= x365 <= 1
 0 <= x366 <= 1
 0 <= x367 <= 1
 0 <= x368 <= 1
 0 <= x369 <= 1
 0 <= x370 <= 1
 0 <= x371 <= 1
 0 <= x372 <= 1
 0 <= x373 <= 1
 0 <= x374 <= 1
 0 <= x375 <= 1
 0 <= x376 <= 1
 0 <= x377 <= 1
 0 <= x378 <= 1
 0 <= x379 <= 1
 0 <= x380 <= 1
 0 <= x381 <= 1
 0 <= x382 <= 1
 0 <= x383 <= 1
 0 <= x384 <= 1
 0 <= x385 <= 1
 0 <= x386 <= 1
 0 <= x387 <= 1
 0 <= x388 <= 1
 0 <= x389 <= 1
 0 <= x390 <= 1
 0 <= x391 <= 1
 0 <= x392 <= 1
 0 <= x393 <= 1
 0 <= x394 <= 1
 0 <= x395 <= 1
 0 <= x396 <= 1
 0 <= x397 <= 1
 0 <= x398 <= 1
 0 <= x399 <= 1
 0 <= x400 <= 1
 0 <= x401 <= 1
 0 <= x402 <= 1
 0 <= x403 <= 1
 0 <= x404 <= 1
 0 <= x405 <= 1
 0 <= x406 <= 1
 0 <= x407 <= 1
 0 <= x408 <= 1
 0 <= x409 <= 1
 0 <= x410 <= 1
 0 <= x411 <= 1
 0 <= x412 <= 1
 0 <= x413 <= 1
 0 <= x414 <= 1
 0 <= x415 <= 1
 0 <= x416 <= 1
 0 <= x417 <= 1
 0 <= x418 <= 1
 0 <= x419 <= 1
 0 <= x420 <= 1
 0 <= x421 <= 1
 0 <= x422 <= 1
 0 <= x423 <= 1
 0 <= x424 <= 1
 0 <= x425 <= 1
 0 <= x426 <= 1
 0 <= x427 <= 1
 0 <= x428 <= 1
 0 <= x429 <= 1
 0 <= x430 <= 1
 0 <= x431 <= 1
 0 <= x432 <= 1
 0 <= x433 <= 1
 0 <= x434 <= 1
 0 <= x435 <= 1
 0 <= x436 <= 1
 0 <= x437 <= 1
 0 <= x438 <= 1
 0 <= x439 <= 1
 0 <= x440 <= 1
 0 <= x441 <= 1
 0 <= x442 <= 1
 0 <= x443 <= 1
 0 <= x444 <= 1
 0 <= x445 <= 1
 0 <= x446 <= 1
 0 <= x447 <= 1
 0 <= x448 <= 1
 0 <= x449 <= 1
 0 <= x450 <= 1
 0 <= x451 <= 1
 0 <= x452 <= 1
 0 <= x453 <= 1
 0 <= x454 <= 1
 0 <= x455 <= 1
 0 <= x456 <= 1
 0 <= x457 <= 1
 0 <= x458 <= 1
 0 <= x459 <= 1
 0 <= x460 <= 1
 0 <= x461 <= 1
 0 <= x462 <= 1
 0 <= x463 <= 1
 0 <= x464 <= 1
 0 <= x465 <= 1
 0 <= x466 <= 1
 0 <= x467 <= 1
 0 <= x468 <= 1
 0 <= x469 <= 1
 0 <= x470 <= 1
 0 <= x471 <= 1
 0 <= x472 <= 1
 0 <= x473 <= 1
 0 <= x474 <= 1
 0 <= x475 <= 1
 0 <= x476 <= 1
 0 <= x477 <= 1
 0 <= x478 <= 1
 0 <= x479 <= 1
 0 <= x480 <= 1
 0 <= x481 <= 1
 0 <= x482 <= 1
 0 <= x483 <= 1
 0 <= x484 <= 1
 0 <= x485 <= 1
 0 <= x486 <= 1
 0 <= x487 <= 1
 0 <= x488 <= 1
 0 <= x489 <= 1
 0 <= x490 <= 1
 0 <= x491 <= 1
 0 <= x492 <= 1
 0 <= x493 <= 1
 0 <= x494 <= 1
 0 <= x495 <= 1
 0 <= x496 <= 1
 0 <= x497 <= 1
 0 <= x498 <= 1
 0 <= x499 <= 1
 0 <= x500 <= 1
 0 <= x501 <= 1
 0 <= x502 <= 1
 0 <= x503 <= 1
 0 <= x504 <= 1
 0 <= x505 <= 1
 0 <= x506 <= 1
 0 <= x507 <= 1
 0 <= x508 <= 1
 0 <= x509 <= 1
 0 <= x510 <= 1
 0 <= x511 <= 1
 0 <= x512 <= 1
 0 <= x513 <= 1
 0 <= x514 <= 1
 0 <= x515 <= 1
 0 <= x516 <= 1
 0 <= x517 <= 1
 0 <= x518 <= 1
 0 <= x519 <= 1
 0 <= x520 <= 1
 0 <= x521 <= 1
 0 <= x522 <= 1
 0 <= x523 <= 1
 0 <= x524 <= 1
 0 <= x525 <= 1
 0 <= x526 <= 1
 0 <= x527 <= 1
 0 <= x528 <= 1
 0 <= x529 <= 1
 0 <= x530 <= 1
 0 <= x531 <= 1
 0 <= x532 <= 1
 0 <= x533 <= 1
 0 <= x534 <= 1
 0 <= x535 <= 1
 0 <= x536 <= 1
 0 <= x537 <= 1
 0 <= x538 <= 1
 0 <= x539 <= 1
 0 <= x540 <= 1
 0 <= x541 <= 1
 0 <= x542 <= 1
 0 <= x543 <= 1
 0 <= x544 <= 1
 0 <= x545 <= 1
 0 <= x546 <= 1
 0 <= x547 <= 1
 0 <= x548 <= 1
 0 <= x549 <= 1
 0 <= x550 <= 1
 0 <= x551 <= 1
 0 <= x552 <= 1
 0 <= x553 <= 1
 0 <= x554 <= 1
 0 <= x555 <= 1
 0 <= x556 <= 1
 0 <= x557 <= 1
 0 <= x558 <= 1
 0 <= x559 <= 1
 0 <= x560 <= 1
 0 <= x561 <= 1
 0 <= x562 <= 1
 0 <= x563 <= 1
 0 <= x564 <= 1
 0 <= x565 <= 1
 0 <= x566 <= 1
 0 <= x567 <= 1
 0 <= x568 <= 1
 0 <= x569 <= 1
 0 <= x570 <= 1
 0 <= x571 <= 1
 0 <= x572 <= 1
 0 <= x573 <= 1
 0 <= x574 <= 1
 0 <= x575 <= 1
 0 <= x576 <= 1
 0 <= x577 <= 1
 0 <= x578 <= 1
 0 <= x579 <= 1
 0 <= x580 <= 1
 0 <= x581 <= 1
 0 <= x582 <= 1
 0 <= x583 <= 1
 0 <= x584 <= 1
 0 <= x585 <= 1
 0 <= x586 <= 1
 0 <= x587 <= 1
 0 <= x588 <= 1
 0 <= x589 <= 1
 0 <= x590 <= 1
 0 <= x591 <= 1
 0 <= x592 <= 1
 0 <= x593 <= 1
 0 <= x594 <= 1
 0 <= x595 <= 1
 0 <= x596 <= 1
 0 <= x597 <= 1
 0 <= x598 <= 1
 0 <= x599 <= 1
 0 <= x600 <= 1
 0 <= x601 <= 1
 0 <= x602 <= 1
 0 <= x603 <= 1
 0 <= x604 <= 1
 0 <= x605 <= 1
 0 <= x606 <= 1
 0 <= x607 <= 1
 0 <= x608 <= 1
 0 <= x609 <= 1
 0 <= x610 <= 1
 0 <= x611 <= 1
 0 <= x612 <= 1
 0 <= x613 <= 1
 0 <= x614 <= 1
 0 <= x615 <= 1
 0 <= x616 <= 1
 0 <= x617 <= 1
 0 <= x618 <= 1
 0 <= x619 <= 1
 0 <= x620 <= 1
 0 <= x621 <= 1
 0 <= x622 <= 1
 0 <= x623 <= 1
 0 <= x624 <= 1
 0 <= x625 <= 1
 0 <= x626 <= 1
 0 <= x627 <= 1
 0 <= x628 <= 1
 0 <= x629 <= 1
 0 <= x630 <= 1
 0 <= x631 <= 1
 0 <= x632 <= 1
 0 <= x633 <= 1
 0 <= x634 <= 1
 0 <= x635 <= 1
 0 <= x636 <= 1
 0 <= x637 <= 1
 0 <= x638 <= 1
 0 <= x639 <= 1
 0 <= x640 <= 1
 0 <= x641 <= 1
 0 <= x642 <= 1
 0 <= x643 <= 1
 0 <= x644 <= 1
 0 <= x645 <= 1
 0 <= x646 <= 1
 0 <= x647 <= 1
 0 <= x648 <= 1
 0 <= x649 <= 1
 0 <= x650 <= 1
 0 <= x651 <= 1
 0 <= x652 <= 1
 0 <= x653 <= 1
 0 <= x654 <= 1
 0 <= x655 <= 1
 0 <= x656 <= 1
 0 <= x657 <= 1
 0 <= x658 <= 1
 0 <= x659 <= 1
 0 <= x660 <= 1
Binaries
 x601  x602  x603  x604  x605  x606  x607  x608  x609  x610  x611  x612  x613 
 x614  x615  x616  x617  x618  x619  x620  x621  x622  x623  x624  x625  x626 
 x627  x628  x629  x630  x631  x632  x633  x634  x635  x636  x637  x638  x639 
 x640  x641  x642  x643  x644  x645  x646  x647  x648  x649  x650  x651  x652 
 x653  x654  x655  x656  x657  x658  x659  x660 
End
